Minimize
 
Subject To
 NV_E000: NV000 = 0.1198402083333333
 MI_E000: OFRF000 + MI000 = 16.66666666666667
 ONRF000: ONRF000 = 0
 I_UVE000: I_UV0000 + I_UV1000 = 1
 MO3_NFCQ000: MO3000 = 6857.143
 3.86000: MO2000 - 0.5 KQ000 + NV000 + 10000 I_UV1000 >= 4000
 3.86000: MO2000 + 10000 I_UV0000 >= 6857.143
 3.88000: - MI000 + MO1000 - 10000 MF_I1000 <= 0
 3.89000: MF_I0000 + MF_I1000 = 1
 3.90a000: - MI000 + MF_A0000 - 10000 MF_I0000 <= 0
 3.91a000: - MO1000 + MF_A0000 - 10000 MF_I1000 <= 0
 3.93000: MO2000 - MF_A0000 - 10000 MF_I3000 <= 0
 3.94000: MF_I2000 + MF_I3000 = 1
 3.95a000: - MF_A0000 + MF_A1000 - 10000 MF_I2000 <= 0
 3.98000: MO3000 - MF_A1000 - 10000 MF_I5000 <= 0
 3.99000: MF_I4000 + MF_I5000 = 1
 3.100a000: - MF_A1000 + MF_A2000 - 10000 MF_I4000 <= 0
 3.103000: - MF_A2000 - 10000 MF_I7000 <= -6857.143
 3.104000: MF_I6000 + MF_I7000 = 1
 3.105a000: - MF_A2000 + MF_A3000 - 10000 MF_I6000 <= 0
 3.111a000: MF000 - MF_A3000 = 0
 3.113000: - MF000 - ONRF000 - NV000 + NV010 + MF100 + OFRF100 = 0
 3.114000: - NV010 + UV000 = -28.76165
Bounds
 MF000 free
 ONRF000 free
 MI000 free
 MO1000 free
 MO2000 free
 MO3000 free
 NV000 free
 NV010 free
 I_UV0000 free
 I_UV1000 free
 MF_A0000 free
 MF_A1000 free
 MF_A2000 free
 MF_A3000 free
 MF_I0000 free
 MF_I1000 free
 MF_I2000 free
 MF_I3000 free
 MF_I4000 free
 MF_I5000 free
 MF_I6000 free
 MF_I7000 free
Generals
 I_UV0000 I_UV1000 MF_I0000 MF_I1000 MF_I2000 MF_I3000 MF_I4000 MF_I5000
 MF_I6000 MF_I7000
End
